computational_data/solutions/ER_n30_p035_s2.sol
Optimal - objective value 7.00000000
      8 r_8                         1                       1
     16 r_16                        1                       1
     20 r_20                        1                       1
     34 b_4                         1                       1
     39 b_9                         1                       1
     53 b_23                        1                       1
     54 b_24                        1                       1
