computational_data/logs/ER_n30_p035_s2.log
Welcome to the CBC MILP Solver 
Version: 2.10.12 
Build Date: Aug 20 2024 

command line - /opt/homebrew/bin/cbc computational_data/lp/ER_n30_p035_s2.lp seconds 10.0 solve solu computational_data/solutions/ER_n30_p035_s2.sol (default strategy 1)
seconds was changed from 1e+100 to 10
Continuous objective value is 5.36127 - 0.00 seconds
Cgl0003I 0 fixed, 0 tightened bounds, 167 strengthened rows, 0 substitutions
Cgl0003I 0 fixed, 0 tightened bounds, 164 strengthened rows, 0 substitutions
Cgl0003I 0 fixed, 0 tightened bounds, 82 strengthened rows, 0 substitutions
Cgl0003I 0 fixed, 0 tightened bounds, 31 strengthened rows, 0 substitutions
Cgl0003I 0 fixed, 0 tightened bounds, 11 strengthened rows, 0 substitutions
Cgl0003I 0 fixed, 0 tightened bounds, 5 strengthened rows, 0 substitutions
Cgl0003I 0 fixed, 0 tightened bounds, 3 strengthened rows, 0 substitutions
Cgl0004I processed model has 239 rows, 60 columns (60 integer (60 of which binary)) and 1316 elements
Cutoff increment increased from 1e-05 to 0.9999
Cbc0038I Initial state - 30 integers unsatisfied sum - 5.36127
Cbc0038I Pass   1: suminf.    5.36740 (31) obj. 5.36763 iterations 8
Cbc0038I Pass   2: suminf.    5.06200 (28) obj. 5.986 iterations 32
Cbc0038I Pass   3: suminf.    4.30000 (13) obj. 7.1 iterations 29
Cbc0038I Pass   4: suminf.    2.00000 (4) obj. 9 iterations 38
Cbc0038I Pass   5: suminf.    2.00000 (4) obj. 9 iterations 28
Cbc0038I Pass   6: suminf.    2.00000 (4) obj. 9 iterations 14
Cbc0038I Pass   7: suminf.    0.00000 (0) obj. 10 iterations 20
Cbc0038I Solution found of 10
Cbc0038I Before mini branch and bound, 18 integers at bound fixed and 0 continuous
Cbc0038I Full problem 239 rows 60 columns, reduced to 197 rows 42 columns - 3 fixed gives 80, 21 - ok now
Cbc0038I Full problem 239 rows 60 columns, reduced to 79 rows 21 columns
Cbc0038I Mini branch and bound improved solution from 10 to 9 (0.02 seconds)
Cbc0038I Round again with cutoff of 7.73622
Cbc0038I Pass   8: suminf.    5.36740 (31) obj. 5.36763 iterations 0
Cbc0038I Pass   9: suminf.    5.06200 (28) obj. 5.986 iterations 34
Cbc0038I Pass  10: suminf.    5.06955 (15) obj. 7.73622 iterations 52
Cbc0038I Pass  11: suminf.    4.25591 (20) obj. 7.73622 iterations 22
Cbc0038I Pass  12: suminf.    6.26378 (22) obj. 7.73622 iterations 65
Cbc0038I Pass  13: suminf.    3.98886 (24) obj. 7.73622 iterations 35
Cbc0038I Pass  14: suminf.    3.19499 (19) obj. 7.73622 iterations 17
Cbc0038I Pass  15: suminf.    5.06955 (15) obj. 7.73622 iterations 55
Cbc0038I Pass  16: suminf.    4.35214 (26) obj. 7.73622 iterations 27
Cbc0038I Pass  17: suminf.    5.36046 (23) obj. 7.73622 iterations 44
Cbc0038I Pass  18: suminf.    3.69016 (23) obj. 7.73622 iterations 30
Cbc0038I Pass  19: suminf.    3.53189 (19) obj. 7.73622 iterations 8
Cbc0038I Pass  20: suminf.    5.73622 (12) obj. 7.73622 iterations 53
Cbc0038I Pass  21: suminf.    2.20000 (13) obj. 6.6 iterations 44
Cbc0038I Pass  22: suminf.    0.00000 (0) obj. 7 iterations 54
Cbc0038I Solution found of 7
Cbc0038I Before mini branch and bound, 9 integers at bound fixed and 0 continuous
Cbc0038I Mini branch and bound did not improve solution (0.03 seconds)
Cbc0038I Round again with cutoff of 5.87233
Cbc0038I Reduced cost fixing fixed 4 variables on major pass 3
Cbc0038I Pass  23: suminf.    5.36740 (31) obj. 5.36763 iterations 0
Cbc0038I Pass  24: suminf.    5.06180 (29) obj. 5.87233 iterations 32
Cbc0038I Pass  25: suminf.    5.45825 (21) obj. 5.87233 iterations 25
Cbc0038I Pass  26: suminf.    5.00029 (24) obj. 5.87233 iterations 16
Cbc0038I Pass  27: suminf.    5.60911 (18) obj. 5.87233 iterations 37
Cbc0038I Pass  28: suminf.    5.10117 (28) obj. 5.87233 iterations 28
Cbc0038I Pass  29: suminf.    5.59567 (19) obj. 5.87233 iterations 30
Cbc0038I Pass  30: suminf.    5.06180 (29) obj. 5.87233 iterations 25
Cbc0038I Pass  31: suminf.    5.54256 (22) obj. 5.87233 iterations 29
Cbc0038I Pass  32: suminf.    4.93516 (27) obj. 5.87233 iterations 23
Cbc0038I Pass  33: suminf.    5.78487 (22) obj. 5.87233 iterations 35
Cbc0038I Pass  34: suminf.    5.12177 (27) obj. 5.87233 iterations 29
Cbc0038I Pass  35: suminf.    5.83586 (20) obj. 5.87233 iterations 40
Cbc0038I Pass  36: suminf.    5.20682 (27) obj. 5.87233 iterations 19
Cbc0038I Pass  37: suminf.    4.89218 (27) obj. 5.87233 iterations 19
Cbc0038I Pass  38: suminf.    4.88828 (26) obj. 5.87233 iterations 3
Cbc0038I Pass  39: suminf.    5.57173 (21) obj. 5.87233 iterations 45
Cbc0038I Pass  40: suminf.    4.93516 (27) obj. 5.87233 iterations 22
Cbc0038I Pass  41: suminf.    5.54858 (23) obj. 5.87233 iterations 39
Cbc0038I Pass  42: suminf.    4.93141 (27) obj. 5.87233 iterations 24
Cbc0038I Pass  43: suminf.    5.87233 (19) obj. 5.87233 iterations 28
Cbc0038I Pass  44: suminf.    5.36740 (31) obj. 5.36763 iterations 31
Cbc0038I Pass  45: suminf.    5.06180 (29) obj. 5.87233 iterations 29
Cbc0038I Pass  46: suminf.    5.62008 (21) obj. 5.87233 iterations 26
Cbc0038I Pass  47: suminf.    4.95191 (23) obj. 5.87233 iterations 21
Cbc0038I Pass  48: suminf.    4.76060 (22) obj. 5.87233 iterations 9
Cbc0038I Pass  49: suminf.    5.54293 (25) obj. 5.87233 iterations 32
Cbc0038I Pass  50: suminf.    5.00029 (24) obj. 5.87233 iterations 38
Cbc0038I Pass  51: suminf.    5.87233 (20) obj. 5.87233 iterations 31
Cbc0038I Pass  52: suminf.    5.36740 (31) obj. 5.36763 iterations 34
Cbc0038I No solution found this major pass
Cbc0038I Before mini branch and bound, 10 integers at bound fixed and 0 continuous
Cbc0038I Full problem 239 rows 60 columns, reduced to 222 rows 50 columns - 8 fixed gives 0, 0 - ok now
Cbc0038I Mini branch and bound did not improve solution (0.04 seconds)
Cbc0038I After 0.04 seconds - Feasibility pump exiting with objective of 7 - took 0.03 seconds
Cbc0012I Integer solution of 7 found by feasibility pump after 0 iterations and 0 nodes (0.04 seconds)
Cbc0038I Full problem 239 rows 60 columns, reduced to 158 rows 32 columns - 2 fixed gives 89, 21 - ok now
Cbc0031I 9 added rows had average density of 37.111111
Cbc0013I At root node, 9 cuts changed objective from 5.3612684 to 5.6806189 in 100 passes
Cbc0014I Cut generator 0 (Probing) - 2 row cuts average 4.5 elements, 0 column cuts (0 active)  in 0.032 seconds - new frequency is -100
Cbc0014I Cut generator 1 (Gomory) - 954 row cuts average 54.1 elements, 0 column cuts (0 active)  in 0.024 seconds - new frequency is -100
Cbc0014I Cut generator 2 (Knapsack) - 0 row cuts average 0.0 elements, 0 column cuts (0 active)  in 0.005 seconds - new frequency is -100
Cbc0014I Cut generator 3 (Clique) - 0 row cuts average 0.0 elements, 0 column cuts (0 active)  in 0.006 seconds - new frequency is -100
Cbc0014I Cut generator 4 (MixedIntegerRounding2) - 2 row cuts average 56.0 elements, 0 column cuts (0 active)  in 0.018 seconds - new frequency is -100
Cbc0014I Cut generator 5 (FlowCover) - 0 row cuts average 0.0 elements, 0 column cuts (0 active)  in 0.001 seconds - new frequency is -100
Cbc0014I Cut generator 7 (ZeroHalf) - 95 row cuts average 12.9 elements, 0 column cuts (0 active)  in 0.156 seconds - new frequency is 1
Cbc0010I After 0 nodes, 1 on tree, 7 best solution, best possible 5.6806189 (0.38 seconds)
Cbc0001I Search completed - best objective 7, took 4307 iterations and 6 nodes (0.43 seconds)
Cbc0032I Strong branching done 146 times (3419 iterations), fathomed 0 nodes and fixed 0 variables
Cbc0035I Maximum depth 2, 14 variables fixed on reduced cost
Cuts at root node changed objective from 5.36127 to 5.68062
Probing was tried 100 times and created 2 cuts of which 0 were active after adding rounds of cuts (0.032 seconds)
Gomory was tried 100 times and created 954 cuts of which 0 were active after adding rounds of cuts (0.024 seconds)
Knapsack was tried 100 times and created 0 cuts of which 0 were active after adding rounds of cuts (0.005 seconds)
Clique was tried 100 times and created 0 cuts of which 0 were active after adding rounds of cuts (0.006 seconds)
MixedIntegerRounding2 was tried 100 times and created 2 cuts of which 0 were active after adding rounds of cuts (0.018 seconds)
FlowCover was tried 100 times and created 0 cuts of which 0 were active after adding rounds of cuts (0.001 seconds)
TwoMirCuts was tried 1 times and created 0 cuts of which 0 were active after adding rounds of cuts (0.000 seconds)
ZeroHalf was tried 104 times and created 97 cuts of which 0 were active after adding rounds of cuts (0.163 seconds)

Result - Optimal solution found

Objective value:                7.00000000
Enumerated nodes:               6
Total iterations:               4307
Time (CPU seconds):             0.43
Time (Wallclock seconds):       0.46

Total time (CPU seconds):       0.44   (Wallclock seconds):       0.46

